ilp_joint/output/chemosynthesis_ilp.lp
Maximize
  7.74121e-05 Z_140_0_0 + 0.00296872044515035 Z_140_0_1
   + 0.5551844882735426 Z_140_0_2 + 3.0900051413059555e-04 Z_140_0_3
   + 0.3414603786348337 Z_140_0_4
Subject To
 constraint1_1400: Z_140_0_0 + Z_140_0_1 + Z_140_0_2 + Z_140_0_3
   + Z_140_0_4 <= 1
 constraint2_1400: Z_140_0_0 <= 1
 constraint2_1401: Z_140_0_1 <= 1
 constraint2_1402: Z_140_0_2 <= 1
 constraint2_1403: Z_140_0_3 <= 1
Bounds
Binaries
 Z_140_0_0 Z_140_0_1 Z_140_0_2 Z_140_0_3 Z_140_0_4
End
