ilp_joint/output/chemosynthesis_ilp.sol
# Solution for model chemosynthesis_srl_ilp
# Objective value = 5.5518448827354261e-01
Z_140_0_0 0
Z_140_0_1 0
Z_140_0_2 1
Z_140_0_3 0
Z_140_0_4 0
